MIDORI_ROUND_2.txt
Problem:    
Rows:       74
Columns:    56 (24 integer, 24 binary)
Non-zeros:  232
Status:     INTEGER OPTIMAL
Objective:  obj = 4 (MINimum)

   No.   Row name        Activity     Lower bound   Upper bound
------ ------------    ------------- ------------- -------------
     1 r.5                         0             0               
     2 r.6                         1             0               
     3 r.7                         0             0               
     4 r.8                         1             0               
     5 r.9                         0             0               
     6 r.10                        0             0               
     7 r.11                        1             0               
     8 r.12                        0             0               
     9 r.13                        1             0               
    10 r.14                        0             0               
    11 r.15                        0             0               
    12 r.16                        0             0               
    13 r.17                        0             0               
    14 r.18                        0             0               
    15 r.19                        0             0               
    16 r.20                        0             0               
    17 r.21                        0             0               
    18 r.22                        0             0               
    19 r.23                        0             0               
    20 r.24                        0             0               
    21 r.25                        0             0               
    22 r.26                        0             0               
    23 r.27                        0             0               
    24 r.28                        0             0               
    25 r.29                        0             0               
    26 r.30                        0             0               
    27 r.31                        0             0               
    28 r.32                        0             0               
    29 r.33                        0             0               
    30 r.34                        0             0               
    31 r.35                        0             0               
    32 r.36                        0             0               
    33 r.37                        0             0               
    34 r.38                        0             0               
    35 r.39                        0             0               
    36 r.40                        0             0               
    37 r.41                        2             1               
    38 r.43                        0             0               
    39 r.44                        0             0               
    40 r.45                        1             0               
    41 r.46                        1             0               
    42 r.47                        1             0               
    43 r.48                        0             0               
    44 r.49                        0             0               
    45 r.50                        0             0               
    46 r.51                        1             0               
    47 r.52                        0             0               
    48 r.53                        0             0               
    49 r.54                        0             0               
    50 r.55                        0             0               
    51 r.56                        0             0               
    52 r.57                        0             0               
    53 r.58                        0             0               
    54 r.59                        0             0               
    55 r.60                        0             0               
    56 r.61                        0             0               
    57 r.62                        0             0               
    58 r.63                        0             0               
    59 r.64                        0             0               
    60 r.65                        0             0               
    61 r.66                        0             0               
    62 r.67                        0             0               
    63 r.68                        0             0               
    64 r.69                        0             0               
    65 r.70                        0             0               
    66 r.71                        1             0               
    67 r.72                        1             0               
    68 r.73                        0             0               
    69 r.74                        1             0               
    70 r.75                        0             0               
    71 r.76                        0             0               
    72 r.77                        0             0               
    73 r.78                        1             0               
    74 r.79                        2             1               

   No. Column name       Activity     Lower bound   Upper bound
------ ------------    ------------- ------------- -------------
     1 x0           *              0             0             1 
     2 x1           *              0             0             1 
     3 x2           *              0             0             1 
     4 x3           *              0             0             1 
     5 x4           *              0             0             1 
     6 x5           *              0             0             1 
     7 x6           *              0             0             1 
     8 x7           *              0             0             1 
     9 x8           *              0             0             1 
    10 x9           *              0             0             1 
    11 x10          *              1             0             1 
    12 x11          *              0             0             1 
    13 x12          *              0             0             1 
    14 x13          *              0             0             1 
    15 x14          *              0             0             1 
    16 x15          *              1             0             1 
    17 x16                         1             0               
    18 x17                         0             0               
    19 x18                         1             0               
    20 x19                         0             0               
    21 x20                         0             0               
    22 x21                         0             0               
    23 x22                         0             0               
    24 x23                         0             0               
    25 x24                         0             0               
    26 x25                         0             0               
    27 x26                         0             0               
    28 x27                         0             0               
    29 x28                         0             0               
    30 x29                         0             0               
    31 x30                         0             0               
    32 x31                         0             0               
    33 d0           *              1             0             1 
    34 d1           *              0             0             1 
    35 d2           *              0             0             1 
    36 d3           *              0             0             1 
    37 x32                         1             0               
    38 x33                         1             0               
    39 x34                         1             0               
    40 x35                         0             0               
    41 d4           *              1             0             1 
    42 x36                         0             0               
    43 x37                         0             0               
    44 x38                         0             0               
    45 x39                         0             0               
    46 d5           *              0             0             1 
    47 x40                         0             0               
    48 x41                         0             0               
    49 x42                         0             0               
    50 x43                         0             0               
    51 d6           *              0             0             1 
    52 x44                         1             0               
    53 x45                         1             0               
    54 x46                         1             0               
    55 x47                         0             0               
    56 d7           *              1             0             1 

Integer feasibility conditions:

KKT.PE: max.abs.err = 0.00e+00 on row 0
        max.rel.err = 0.00e+00 on row 0
        High quality

KKT.PB: max.abs.err = 5.11e-16 on column 42
        max.rel.err = 5.11e-16 on column 42
        High quality

End of output
